p cnf 82 230
-1 -14 0
1 14 0
-3 -15 0
3 15 0
-5 -16 0
5 16 0
-7 -17 0
7 17 0
-9 -18 0
9 18 0
-20 2 0
-2 -2 20 0
-21 3 0
-21 10 0
-3 -10 21 0
-22 11 0
-22 15 0
-11 -15 22 0
-24 15 0
-24 12 0
-24 2 0
-15 -12 -2 24 0
-25 2 0
-25 3 0
-25 13 0
-2 -3 -13 25 0
-27 4 0
-4 -4 27 0
-28 5 0
-28 10 0
-5 -10 28 0
-29 11 0
-29 16 0
-11 -16 29 0
-31 16 0
-31 12 0
-31 4 0
-16 -12 -4 31 0
-32 4 0
-32 13 0
-32 5 0
-4 -13 -5 32 0
-34 6 0
-6 -6 34 0
-35 7 0
-35 10 0
-7 -10 35 0
-36 11 0
-36 17 0
-11 -17 36 0
-38 17 0
-38 12 0
-38 6 0
-17 -12 -6 38 0
-39 6 0
-39 13 0
-39 7 0
-6 -13 -7 39 0
-41 8 0
-8 -8 41 0
-42 9 0
-42 10 0
-9 -10 42 0
-43 11 0
-43 18 0
-11 -18 43 0
-45 18 0
-45 12 0
-45 8 0
-18 -12 -8 45 0
-46 8 0
-46 13 0
-46 9 0
-8 -13 -9 46 0
-23 -20 0
-23 -21 0
-23 -22 0
23 20 21 22 0
-26 -24 0
-26 -25 0
26 24 25 0
-30 -27 0
-30 -28 0
-30 -29 0
30 27 28 29 0
-33 -31 0
-33 -32 0
33 31 32 0
-37 -34 0
-37 -35 0
-37 -36 0
37 34 35 36 0
-40 -38 0
-40 -39 0
40 38 39 0
-44 -41 0
-44 -42 0
-44 -43 0
44 41 42 43 0
-47 -45 0
-47 -46 0
47 45 46 0
19 83 0
19 14 0
-83 -14 -19 0
-23 -48 0
23 48 0
-49 14 0
-49 23 0
-14 -23 49 0
-50 14 0
-50 26 0
-50 83 0
-14 -26 -83 50 0
-30 -51 0
30 51 0
-52 14 0
-52 30 0
-14 -30 52 0
-53 14 0
-53 23 0
-53 33 0
-14 -23 -33 53 0
-54 14 0
-54 83 0
-54 26 0
-54 33 0
-14 -83 -26 -33 54 0
-37 -55 0
37 55 0
-56 14 0
-56 37 0
-14 -37 56 0
-57 14 0
-57 30 0
-57 40 0
-14 -30 -40 57 0
-58 14 0
-58 23 0
-58 33 0
-58 40 0
-14 -23 -33 -40 58 0
-59 14 0
-59 83 0
-59 26 0
-59 33 0
-59 40 0
-14 -83 -26 -33 -40 59 0
-44 -60 0
44 60 0
-61 26 0
-61 33 0
-61 40 0
-61 47 0
26 33 40 47 61 0
-47 83 0
-47 26 0
-47 33 0
-47 40 0
-47 47 0
83 26 33 40 47 62 0
-63 23 0
-63 33 0
-63 40 0
-63 47 0
-23 -33 -40 -47 63 0
-64 30 0
-64 40 0
-64 47 0
-30 -40 -47 64 0
-65 37 0
-65 47 0
-37 -47 65 0
-66 44 0
-44 -44 66 0
-67 48 0
-67 26 0
-48 -26 67 0
-68 -49 0
-68 -50 0
68 49 50 0
-69 51 0
-69 33 0
-51 -33 69 0
-70 -52 0
-70 -53 0
-70 -54 0
70 52 53 54 0
-71 55 0
-71 40 0
-55 -40 71 0
-72 -56 0
-72 -57 0
-72 -58 0
-72 -59 0
72 56 57 58 59  0
-73 60 0
-73 47 0
-60 -47 73 0
-74 -63 0
-74 -64 0
-74 -65 0
-74 -66 0
74 63 64 65 66  0
-75 -19 -67 0
-75 19 67 0
75 -19 67 0
75 19 -67 0
-76 -68 -69 0
-76 68 69 0
76 -68 69 0
76 68 -69 0
-77 75 0
-77 76 0
-77 78 0
-77 79 0
-75 -76 -78 -79 77 0
-78 -70 -71 0
-78 70 71 0
78 -70 71 0
78 70 -71 0
-79 -72 -73 0
-79 72 73 0
79 -72 73 0
79 72 -73 0
-81 62 0
-81 74 0
-62 -74 81 0
82 0
61 0
